Output of POSCAR_revise
1.000000000000000
      20.31435138200000      0.00000000000000      0.00000000000000
       0.00000000000000     13.82924187900000      0.00000000000000
       0.00000000000000      0.00000000000000     30.98382837800000
   Fe
   192
Selective dynamics
Direct
  0.000000000000   0.000000000000   0.005004046177  T  T  T
  0.500000000000   0.000000000000   0.005004046177  T  T  T
  0.000000000000   0.250000000018   0.104882660887  T  T  T
  0.500000000000   0.250000000018   0.104882660887  T  T  T
  0.250000000025   0.000021882617   0.005004046177  T  T  T
  0.750000000025   0.499978117347   0.005004046177  T  T  T
  0.250000000025   0.250022535599   0.104882660887  T  T  T
  0.750000000025   0.249977464437   0.104882660887  T  T  T
  0.041065555592   0.333333348735   0.005004046177  T  T  T
  0.541065555592   0.166666651301   0.005004046177  T  T  T
  0.958934444408   0.166666651301   0.005004046177  T  T  T
  0.458934444408   0.333333348735   0.005004046177  T  T  T
  0.080316370448   0.166668302873   0.005004046177  T  T  T
  0.580316370448   0.333331697090   0.005004046177  T  T  T
  0.919683629552   0.333331697090   0.005004046177  T  T  T
  0.419683629552   0.166668302873   0.005004046177  T  T  T
  0.122904695653   0.000004084100   0.005004046177  T  T  T
  0.622904695653   0.499995915864   0.005004046177  T  T  T
  0.877095304347   0.499995915864   0.005004046177  T  T  T
  0.377095304347   0.000004084100   0.005004046177  T  T  T
  0.166468770792   0.333341344618   0.005004046177  T  T  T
  0.666468770792   0.166658655418   0.005004046177  T  T  T
  0.833531229208   0.166658655418   0.005004046177  T  T  T
  0.333531229208   0.333341344618   0.005004046177  T  T  T
  0.195983422416   0.166681878744   0.005004046177  T  T  T
  0.695983422416   0.333318121292   0.005004046177  T  T  T
  0.804016577584   0.333318121292   0.005004046177  T  T  T
  0.304016577584   0.166681878744   0.005004046177  T  T  T
  0.041065711492   0.083333708824   0.104882660887  T  T  T
  0.541065711492   0.416666291140   0.104882660887  T  T  T
  0.958934288557   0.416666291140   0.104882660887  T  T  T
  0.458934288557   0.083333708824   0.104882660887  T  T  T
  0.080316678063   0.416668363415   0.104882660887  T  T  T
  0.580316678063   0.083331636621   0.104882660887  T  T  T
  0.919683321987   0.083331636621   0.104882660887  T  T  T
  0.419683321937   0.416668363415   0.104882660887  T  T  T
  0.122904298939   0.250004184557   0.104882660887  T  T  T
  0.622904298939   0.249995815479   0.104882660887  T  T  T
  0.877095701061   0.249995815479   0.104882660887  T  T  T
  0.377095701061   0.250004184557   0.104882660887  T  T  T
  0.166468677361   0.083341012623   0.104882660887  T  T  T
  0.666468677361   0.416658987341   0.104882660887  T  T  T
  0.833531322639   0.416658987341   0.104882660887  T  T  T
  0.333531322639   0.083341012623   0.104882660887  T  T  T
  0.195983665544   0.416682349359   0.104882660887  T  T  T
  0.695983665544   0.083317650677   0.104882660887  T  T  T
  0.804016334505   0.083317650677   0.104882660887  T  T  T
  0.304016334456   0.416682349359   0.104882660887  T  T  T
 -0.000001203520   0.000004093682   0.207517252787  T  T  T
  0.500005364740   0.000003910834   0.207519469552  T  T  T
 -0.000004873359   0.250005208785   0.308023341178  T  T  T
  0.499994985170   0.250000236318   0.308024558261  T  T  T
  0.250001511001   0.995559396530   0.210717742770  T  T  T
  0.749997781821   0.504450406182   0.210717001413  T  T  T
  0.250006248331   0.250867759153   0.298765573158  T  T  T
  0.750001108688   0.249128586425   0.298766415544  T  T  T
  0.041165968387   0.333107889618   0.206690529129  T  T  T
  0.541166509614   0.166891327016   0.206692620433  T  T  T
  0.958833725969   0.166885143827   0.206690682056  T  T  T
  0.458835142906   0.333104926677   0.206694217657  T  T  T
  0.079649182188   0.166255794238   0.206917357216  T  T  T
  0.579645158000   0.333746457649   0.206923034608  T  T  T
  0.920356535381   0.333742197044   0.206930944671  T  T  T
  0.420348309362   0.166258285354   0.206928579830  T  T  T
  0.123221946223   0.999241009847   0.207973352041  T  T  T
  0.623229016705   0.500760114725   0.207991077556  T  T  T
  0.876773734658   0.500768098149   0.207988305844  T  T  T
  0.376773581759   0.999239506200   0.207982105492  T  T  T
  0.166661454987   0.333529103295   0.207481124157  T  T  T
  0.666661760580   0.166462661395   0.207499651270  T  T  T
  0.833339907939   0.166460311079   0.207500497049  T  T  T
  0.333337148320   0.333529716636   0.207489922091  T  T  T
  0.195234985056   0.164740890624   0.205753363349  T  T  T
  0.695231416508   0.335257734900   0.205769964376  T  T  T
  0.804764804849   0.335255809158   0.205763963691  T  T  T
  0.304764658860   0.164737802804   0.205757513768  T  T  T
  0.044460426661   0.084617103040   0.308009129399  T  T  T
  0.544465289640   0.415379211998   0.308019438136  T  T  T
  0.955534586837   0.415387997145   0.308014835769  T  T  T
  0.455536550626   0.084621197479   0.308014862695  T  T  T
  0.076157625743   0.415024164736   0.306475266668  T  T  T
  0.576163271616   0.084973785451   0.306471167024  T  T  T
  0.923833624431   0.084978426239   0.306472650638  T  T  T
  0.423832295885   0.415018757920   0.306477145028  T  T  T
  0.122576560792   0.248574111817   0.307678034724  T  T  T
  0.622582921112   0.251429792325   0.307686530663  T  T  T
  0.877414864584   0.251425191361   0.307685320846  T  T  T
  0.377426624626   0.248575383682   0.307680542959  T  T  T
  0.169994893215   0.083693169162   0.305723920318  T  T  T
  0.669986184889   0.416307644508   0.305714079358  T  T  T
  0.830016815803   0.416304002062   0.305719751832  T  T  T
  0.330010220743   0.083697473877   0.305721181280  T  T  T
  0.192520438347   0.410109996454   0.312427230883  T  T  T
  0.692520208692   0.089904126018   0.312428040560  T  T  T
  0.807480380157   0.089915367194   0.312427002603  T  T  T
  0.307491390783   0.410105945657   0.312428437588  T  T  T
  0.000000000000   0.499999999964   0.005004046177  T  T  T
  0.500000000000   0.499999999964   0.005004046177  T  T  T
  0.000000000000   0.749999999982   0.104882660887  T  T  T
  0.500000000000   0.749999999982   0.104882660887  T  T  T
  0.250000000025   0.500021882653   0.005004046177  T  T  T
  0.750000000025   0.999978117311   0.005004046177  T  T  T
  0.250000000025   0.750022535563   0.104882660887  T  T  T
  0.750000000025   0.749977464401   0.104882660887  T  T  T
  0.041065555592   0.833333348699   0.005004046177  T  T  T
  0.541065555592   0.666666651265   0.005004046177  T  T  T
  0.958934444408   0.666666651265   0.005004046177  T  T  T
  0.458934444408   0.833333348699   0.005004046177  T  T  T
  0.080316370448   0.666668302910   0.005004046177  T  T  T
  0.580316370448   0.833331697127   0.005004046177  T  T  T
  0.919683629552   0.833331697127   0.005004046177  T  T  T
  0.419683629552   0.666668302910   0.005004046177  T  T  T
  0.122904695653   0.500004084136   0.005004046177  T  T  T
  0.622904695653   0.999995915900   0.005004046177  T  T  T
  0.877095304347   0.999995915900   0.005004046177  T  T  T
  0.377095304347   0.500004084136   0.005004046177  T  T  T
  0.166468770792   0.833341344582   0.005004046177  T  T  T
  0.666468770792   0.666658655382   0.005004046177  T  T  T
  0.833531229208   0.666658655382   0.005004046177  T  T  T
  0.333531229208   0.833341344582   0.005004046177  T  T  T
  0.195983422416   0.666681878708   0.005004046177  T  T  T
  0.695983422416   0.833318121256   0.005004046177  T  T  T
  0.804016577584   0.833318121256   0.005004046177  T  T  T
  0.304016577584   0.666681878708   0.005004046177  T  T  T
  0.041065711492   0.583333708860   0.104882660887  T  T  T
  0.541065711492   0.916666291176   0.104882660887  T  T  T
  0.958934288557   0.916666291176   0.104882660887  T  T  T
  0.458934288557   0.583333708860   0.104882660887  T  T  T
  0.080316678063   0.916668363379   0.104882660887  T  T  T
  0.580316678063   0.583331636585   0.104882660887  T  T  T
  0.919683321987   0.583331636585   0.104882660887  T  T  T
  0.419683321937   0.916668363379   0.104882660887  T  T  T
  0.122904298939   0.750004184521   0.104882660887  T  T  T
  0.622904298939   0.749995815443   0.104882660887  T  T  T
  0.877095701061   0.749995815443   0.104882660887  T  T  T
  0.377095701061   0.750004184521   0.104882660887  T  T  T
  0.166468677361   0.583341012659   0.104882660887  T  T  T
  0.666468677361   0.916658987377   0.104882660887  T  T  T
  0.833531322639   0.916658987377   0.104882660887  T  T  T
  0.333531322639   0.583341012659   0.104882660887  T  T  T
  0.195983665544   0.916682349323   0.104882660887  T  T  T
  0.695983665544   0.583317650641   0.104882660887  T  T  T
  0.804016334505   0.583317650641   0.104882660887  T  T  T
  0.304016334456   0.916682349323   0.104882660887  T  T  T
 -0.000002107080   0.500003824569   0.207520919925  T  T  T
  0.500005669324   0.500003441211   0.207519411710  T  T  T
 -0.000002034520   0.749998011931   0.308024120495  T  T  T
  0.499992006654   0.749995364220   0.308025790723  T  T  T
  0.250002501472   0.495547468997   0.210706884968  T  T  T
  0.749998422971   0.004451012829   0.210715593003  T  T  T
  0.250005926372   0.750877245296   0.298784430301  T  T  T
  0.750001144501   0.749124482402   0.298771260692  T  T  T
  0.041166061564   0.833107173432   0.206702904947  T  T  T
  0.541164799452   0.666893300446   0.206700797433  T  T  T
  0.958834137036   0.666882934137   0.206704718253  T  T  T
  0.458834249866   0.833103265207   0.206704255388  T  T  T
  0.079642171616   0.666256202700   0.206932465220  T  T  T
  0.579646417599   0.833741291274   0.206928112790  T  T  T
  0.920355983614   0.833737343182   0.206935979463  T  T  T
  0.420353039276   0.666260723737   0.206937119021  T  T  T
  0.123229149191   0.499241162421   0.207974042931  T  T  T
  0.623228324888   0.000764918008   0.207989366810  T  T  T
  0.876772093999   0.000772034279   0.207983814539  T  T  T
  0.376769130314   0.499238162052   0.207978905070  T  T  T
  0.166662358953   0.833534020083   0.207507614468  T  T  T
  0.666660659936   0.666460672674   0.207502301388  T  T  T
  0.833341836161   0.666459794892   0.207508561314  T  T  T
  0.333338500857   0.833527511510   0.207510393987  T  T  T
  0.195230216621   0.664733012851   0.205777862209  T  T  T
  0.695233351789   0.835259069740   0.205770800997  T  T  T
  0.804761681679   0.835255775481   0.205763673684  T  T  T
  0.304770742086   0.664740788577   0.205779645696  T  T  T
  0.044461868976   0.584633311069   0.308011376186  T  T  T
  0.544461299035   0.915373733204   0.308019366466  T  T  T
  0.955542468331   0.915372418203   0.308017107632  T  T  T
  0.455535138774   0.584632303514   0.308018798363  T  T  T
  0.076165070266   0.915006841650   0.306478146639  T  T  T
  0.576162087867   0.584982842734   0.306471474741  T  T  T
  0.923834978600   0.584985413943   0.306473517025  T  T  T
  0.423829355404   0.915006076664   0.306479288824  T  T  T
  0.122583645846   0.748566624012   0.307679543139  T  T  T
  0.622581917593   0.751425337794   0.307689669932  T  T  T
  0.877420481474   0.751415802196   0.307687744894  T  T  T
  0.377416431271   0.748569798077   0.307679761710  T  T  T
  0.169991080437   0.583714157618   0.305731277818  T  T  T
  0.669985810333   0.916299474204   0.305713563706  T  T  T
  0.830017216752   0.916296641972   0.305720928873  T  T  T
  0.330011257721   0.583714267981   0.305729501130  T  T  T
  0.192529941093   0.910074154603   0.312428563745  T  T  T
  0.692521530025   0.589907526588   0.312430457712  T  T  T
  0.807480817432   0.589915527226   0.312427213975  T  T  T
  0.307476910275   0.910073472913   0.312427326716  T  T  T
