Output of POSCAR_revise
1.000000000000000
      10.00000000000000      0.00000000000000      0.00000000000000
       0.00000000000000     10.00000000000000      0.00000000000000
       0.00000000000000      0.00000000000000     20.50000000000000
   P   O   C   H
   1   4   3   9
Selective dynamics
Cartesian
  0.000000000000  0.000000000000  0.000000000000  T  T  T
  1.417654005700  0.000000000000 -0.387375580300  T  T  T
 -0.909282527700  0.898603430400 -0.958264719500  T  T  T
 -0.674161792100 -1.471565858500  0.021227337500  T  T  T
 -0.430193776400  0.562955489100  1.427739903500  T  T  T
  0.182889884500  0.023222477200  2.634499066200  T  T  T
 -0.602192618000  0.513156461800  3.835300777500  T  T  T
  0.000000000000  0.000000000000  5.143001612300  T  T  T
 -1.827948512900  0.996891822000 -0.645903641000  T  T  T
 -0.153246924700 -2.087565765400 -0.526862539200  T  T  T
  1.229886297500  0.363576425000  2.670490982300  T  T  T
  0.172001608700 -1.078137335100  2.581095552100  T  T  T
 -0.617682174500  1.614635139200  3.827080610400  T  T  T
 -1.647146255200  0.177834634100  3.738666534100  T  T  T
  1.035084431400  0.349922140600  5.274023516600  T  T  T
  0.012822273100 -1.100211124200  5.174932693000  T  T  T
 -0.580752477900  0.349614164700  6.007913160700  T  T  T
